NAME : instances/clustered-mixed-tsp/instance-24.tsp
COMMENT : No Comment
TYPE : TSP
DIMENSION: 41
EDGE_WEIGHT_TYPE : EUC_2D
NODE_COORD_SECTION
1 -292 3026 
2 230 2951 
3 2812 3824 
4 2936 3867 
5 -13 3172 
6 2715 3846 
7 2771 3791 
8 2790 3924 
9 3584 2501 
10 2977 4221 
11 298 3613 
12 2458 3718 
13 2757 3927 
14 -123 3364 
15 -44 3043 
16 2741 3771 
17 2928 4169 
18 2602 4080 
19 3783 2162 
20 -176 3575 
21 21 2992 
22 273 3131 
23 224 3005 
24 2666 4291 
25 3086 4139 
26 3641 2206 
27 3707 2227 
28 3053 4273 
29 3083 4129 
30 2831 3923 
31 2446 4343 
32 2956 4021 
33 -81 3255 
34 2720 4180 
35 2993 4180 
36 286 3254 
37 -175 3202 
38 3575 2144 
39 77 3017 
40 -222 3525 
41 3885 2464 
EOF
